CapLotSizing_PM/src/Instancias/NCLSLT/12i6p2m/NBB06.OUT
 CG ITER, OVMR, OVMRUB =           1   15340.3125000   14205.6992188
 CG ITER, OVMR, OVMRUB =           2   14205.6992188   14205.6992188
 CG ITER, OVMR, OVMRUB =           3   14205.7001953   14205.6992188
 CG ITER, OVMR, OVMRUB =           4   14205.6982422   14205.6992188
 CG ITER, OVMR, OVMRUB =           5   14079.8886719   14205.6992188
 CG ITER, OVMR, OVMRUB =           6   13918.1992188   14205.6992188
 CG ITER, OVMR, OVMRUB =           7   13856.9667969   14205.6992188
 CG ITER, OVMR, OVMRUB =           8   13840.9482422   14205.6992188
 CG ITER, OVMR, OVMRUB =           9   13809.6455078   14205.6992188
 CG ITER, OVMR, OVMRUB =          10   13776.4843750   14205.6992188
 CG ITER, OVMR, OVMRUB =          11   13756.5917969   14205.6992188
 CG ITER, OVMR, OVMRUB =          12   13747.8623047   14205.6992188
 CG ITER, OVMR, OVMRUB =          13   13729.4218750   14205.6992188
 CG ITER, OVMR, OVMRUB =          14   13717.8564453   14205.6992188
 CG ITER, OVMR, OVMRUB =          15   13713.6826172   14205.6992188
 CG ITER, OVMR, OVMRUB =          16   13711.6054688   14205.6992188
 CG ITER, OVMR, OVMRUB =          17   13708.3564453   14131.0996094
 CG ITER, OVMR, OVMRUB =          18   13698.4013672   14131.0996094
 CG ITER, OVMR, OVMRUB =          19   13694.1572266   14131.0996094
 CG ITER, OVMR, OVMRUB =          20   13693.8037109   14131.0996094
 CG ITER, OVMR, OVMRUB =          21   13694.4501953   14131.0996094
 CG ITER, OVMR, OVMRUB =          22   13692.5839844   14131.0996094
 CG ITER, OVMR, OVMRUB =          23   13692.2734375   14131.0996094
 CG ITER, OVMR, OVMRUB =          24   13692.2753906   13997.5996094
 CG ITER, OVMR, OVMRUB =          25   13691.9902344   13997.5996094
 CG ITER, OVMR, OVMRUB =          26   13691.9511719   13888.4130859
 CG ITER, OVMR, OVMRUB =          27   13691.9531250   13888.4130859
 CG ITER, OVMR, OVMRUB =          28   13691.7197266   13784.2988281
 CG ITER, OVMR, OVMRUB =          29   13691.9140625   13784.2988281
 CG ITER, OVMR, OVMRUB =          30   13691.9365234   13784.2988281
 CG ITER, OVMR, OVMRUB =          31   13691.9355469   13784.2988281
 CG ITER, OVMR, OVMRUB =          32   13691.9355469   13784.2988281
OVLB =   13691.9355469 OVLUB =   13784.2988281 TIME =       3.0899999
